NAME : MM25_depots
COMMENT : Instance 25 in MD algorithm. Coordinates of depots and vhcl speeds given.
TYPE : TSP
DIMENSION : 6
EDGE_WEIGHT_TYPE : ATT
NODE_COORD_SECTION
401 62.0425 61.0092 1
402 28.2840 20.3592 1
403 20.5181 51.9917 1
404 43.9134 5.3824 1
405 2.7250 86.2187 1
406 87.6184 44.2935 1
EOF
